1, 33, 34, 35, 39, 42, 43, 51, 50, 48, 49, 41, 40, 38, 20, 19, 1
1, 15, 52, 53, 22, 21, 27, 28, 29, 25, 23, 30, 1
1, 36, 32, 24, 37, 47, 46, 45, 44, 31, 26, 17, 1
1, 18, 2, 3, 7, 8, 13, 10, 11, 12, 9, 5, 6, 4, 16, 14, 1
